(set-info :smt-lib-version 2.6)
(set-logic QF_SLIA)
(set-info :source |
Generated by: Wei-Cheng Wu
Generated on: 2019-07-28
Generator: Py-Conbyte
Application: Concolic execution of Python code
Target solver: CVC4, Z3, Z3str3, Z3-Trau
|)
(set-info :license "https://creativecommons.org/licenses/by/4.0/")
(set-info :category "industrial")
(set-info :status unknown)
(declare-fun data () String)


(assert ( not ( or ( or ( or ( or ( or ( or ( or ( or ( or ( or ( or ( or ( or ( or ( or ( or ( or ( or ( or ( or ( or ( or ( or ( = "jan" "\u{00}\u{00}\u{00}@"  ) ( = "feb" "\u{00}\u{00}\u{00}@"  )  ) ( = "mar" "\u{00}\u{00}\u{00}@"  )  ) ( = "apr" "\u{00}\u{00}\u{00}@"  )  ) ( = "may" "\u{00}\u{00}\u{00}@"  )  ) ( = "jun" "\u{00}\u{00}\u{00}@"  )  ) ( = "jul" "\u{00}\u{00}\u{00}@"  )  ) ( = "aug" "\u{00}\u{00}\u{00}@"  )  ) ( = "sep" "\u{00}\u{00}\u{00}@"  )  ) ( = "oct" "\u{00}\u{00}\u{00}@"  )  ) ( = "nov" "\u{00}\u{00}\u{00}@"  )  ) ( = "dec" "\u{00}\u{00}\u{00}@"  )  ) ( = "january" "\u{00}\u{00}\u{00}@"  )  ) ( = "february" "\u{00}\u{00}\u{00}@"  )  ) ( = "march" "\u{00}\u{00}\u{00}@"  )  ) ( = "april" "\u{00}\u{00}\u{00}@"  )  ) ( = "may" "\u{00}\u{00}\u{00}@"  )  ) ( = "june" "\u{00}\u{00}\u{00}@"  )  ) ( = "july" "\u{00}\u{00}\u{00}@"  )  ) ( = "august" "\u{00}\u{00}\u{00}@"  )  ) ( = "september" "\u{00}\u{00}\u{00}@"  )  ) ( = "october" "\u{00}\u{00}\u{00}@"  )  ) ( = "november" "\u{00}\u{00}\u{00}@"  )  ) ( = "december" "\u{00}\u{00}\u{00}@"  )  )  ))

(assert (not ( < 5 5  )))

(assert (not ( = 5 4  )))

(assert (not ( = 5 3  )))

(assert ( str.suffixof "," ( str.substr data 0 ( - ( str.indexof data " " 0  ) 0  )  )  ))

(assert (not ( = ( str.len data  ) 0  )))
(assert (not ( not ( or ( or ( or ( or ( or ( or ( or ( or ( or ( or ( or ( or ( or ( or ( or ( or ( or ( or ( or ( or ( or ( or ( or ( = "jan" "4"  ) ( = "feb" "4"  )  ) ( = "mar" "4"  )  ) ( = "apr" "4"  )  ) ( = "may" "4"  )  ) ( = "jun" "4"  )  ) ( = "jul" "4"  )  ) ( = "aug" "4"  )  ) ( = "sep" "4"  )  ) ( = "oct" "4"  )  ) ( = "nov" "4"  )  ) ( = "dec" "4"  )  ) ( = "january" "4"  )  ) ( = "february" "4"  )  ) ( = "march" "4"  )  ) ( = "april" "4"  )  ) ( = "may" "4"  )  ) ( = "june" "4"  )  ) ( = "july" "4"  )  ) ( = "august" "4"  )  ) ( = "september" "4"  )  ) ( = "october" "4"  )  ) ( = "november" "4"  )  ) ( = "december" "4"  )  )  )))


(check-sat)

(exit)
